20
5
20508
386 230 155 323 407
true
0.25
1 36 50 40 45 8 33 16 12 27 43 36 50 18 18 12 7 38 8 38
20 19 34 50 3 16 15 36 7 15 33 23 45 48 16 7 2 14 25 26
25 10 14 1 25 42 21 33 12 13 22 27 5 38 28 13 4 40 18 23
16 41 19 47 49 30 47 32 8 21 11 16 1 46 11 20 50 46 23 24
48 29 35 34 38 42 50 15 10 16 13 25 31 23 1 10 18 37 9 23
-39 5 -81 -52 52 -10 -22 100 0 20 -71 98 83 70 -46 60 -48 -53 3 36
0 -85 67 0 0 0 0 79 -13 -3 0 -84 0 89 0 -78 89 -76 -50 0
0 0 0 -31 -82 0 -64 0 0 0 0 0 0 0 29 70 0 6 0
0 -2 -78 0 -45 0 0 0 89 0 0 0 0 82 0 0 57 0
0 0 0 0 22 0 0 0 15 14 71 0 -44 59 0 -85 -96
0 0 92 0 0 -67 -42 0 0 0 0 0 0 0 0 -83
0 0 0 0 0 0 0 55 0 0 0 0 0 0 0
0 0 0 63 47 0 0 63 39 0 0 0 0 97
0 31 0 0 0 -79 0 0 0 0 92 0 0
0 0 81 -84 -61 0 -87 0 0 0 -35 0
0 0 0 0 0 -89 0 -100 75 86 0
0 0 91 0 0 0 0 0 0 0
0 0 0 0 76 0 0 0 -73
0 0 0 -41 -91 0 0 0
0 0 0 0 -38 0 0
0 0 -99 28 0 0
0 0 0 0 0
0 0 0 0
0 -65 0
0 0
0 18 0 0 0 0 0 0 0 96 0 97 0 -32 -28 0 0 0 63
0 0 0 0 0 -15 0 0 86 0 7 0 0 0 -91 0 0 0
0 0 0 0 0 37 0 0 0 47 0 0 0 -85 0 0 75
0 -21 0 0 0 0 0 0 0 0 0 -34 0 0 -69 -55
0 0 0 -44 0 0 -53 73 0 0 26 0 0 9 3
0 0 0 63 57 0 0 0 0 0 -65 0 0 0
0 0 -32 0 -59 0 0 0 0 -85 0 0 0
0 0 0 0 -45 0 0 0 0 -100 0 0
0 0 0 0 24 0 0 0 0 66 -18
0 0 0 0 0 -99 0 0 0 0
0 0 0 34 0 0 0 0 0
0 23 0 77 0 0 -84 0
0 0 0 0 0 0 0
0 0 0 10 27 -16
0 -94 -70 0 0
0 0 0 0
0 0 0
0 0
0
0 0 0 0 -23 0 0 0 19 0 0 0 0 0 92 0 0 0
0 0 0 14 0 0 -68 85 20 -63 0 0 56 0 10 0 0
0 -98 0 0 0 0 0 0 0 0 0 55 0 0 0 24
0 0 0 0 0 0 0 -44 0 0 0 0 0 0 0
0 0 0 0 0 0 0 91 0 0 1 0 0 0
0 0 0 0 0 0 67 0 0 0 0 -23 0
0 6 0 0 0 0 0 0 -36 -6 13 0
0 0 0 0 24 -58 0 0 0 0 0
0 0 0 0 0 4 0 -92 0 0
0 0 0 0 0 0 0 -11 0
0 86 0 0 0 0 -3 0
0 -34 0 -10 0 0 0
0 0 0 0 0 0
0 0 -82 73 0
0 -89 -39 0
0 0 0
0 0
0
0 0 0 -94 0 0 -11 -17 100 66 0 23 0 0 0 0 0
0 0 0 0 0 58 81 -7 0 0 0 -36 0 0 0 0
0 0 0 -57 0 -94 -86 0 0 0 -73 0 0 -96 90
0 0 0 0 0 0 0 -32 0 0 0 0 0 0
0 -25 0 0 -44 0 0 63 0 9 25 0 0
0 38 0 28 0 0 0 0 0 0 0 0
0 0 27 0 36 0 0 0 0 0 0
0 -36 0 0 0 87 -3 0 0 0
0 0 0 64 0 0 0 67 0
0 0 42 0 -74 0 0 0
0 0 -33 -11 -32 -4 0
0 0 8 -65 0 0
0 0 0 98 0
0 0 14 0
0 0 0
0 58
0
0 0 0 -97 0 0 34 0 0 -38 0 82 0 0 0 0
0 0 0 -3 25 0 0 0 0 0 0 -5 -47 0 0
0 0 0 0 0 0 0 0 0 0 41 66 0 0
0 0 0 0 0 0 0 0 33 0 82 0 -58
0 0 0 0 -32 0 37 54 0 0 0 0
0 0 0 81 0 -64 0 96 0 30 0
0 -61 0 0 0 0 0 -26 0 86
0 0 0 0 0 0 83 0 0
0 0 0 0 0 0 0 0
0 0 89 -24 0 76 0
0 0 -67 0 0 0
0 0 0 0 0
0 0 53 0
0 -77 0
0 0
0
0 0 0 0 0 0 0 0 0 0 0 0 0 -95 51
0 -93 0 -92 -61 0 0 9 24 0 0 0 90 0
0 0 0 92 0 0 28 0 72 0 0 0 75
0 0 0 -96 0 0 0 0 0 0 0 0
0 0 65 0 0 0 0 0 -49 0 0
0 0 0 0 0 -21 0 0 83 0
0 0 -32 0 0 -36 81 0 0
0 0 0 0 0 -52 0 0
0 0 0 0 0 41 -5
0 0 0 0 -56 0
0 0 0 3 0
0 0 67 0
0 0 0
0 0
0
0 0 0 0 0 0 0 97 0 56 -12 65 0 -14
0 0 -25 77 -16 -1 0 0 0 0 0 0 0
0 0 0 24 0 0 4 0 0 0 -19 0
0 0 0 0 0 0 0 0 0 0 0
0 -83 65 0 0 0 18 84 72 0
0 0 75 0 0 0 0 0 62
0 82 -77 89 0 0 0 -85
0 0 0 0 0 0 0
0 0 0 -85 0 0
0 0 0 0 45
0 -11 0 0
0 0 0
0 0
0
0 0 79 0 0 0 0 0 0 0 -61 0 0
0 0 0 0 0 0 0 0 0 0 0 0
0 0 0 51 0 -43 0 -72 0 58 -82
0 0 0 0 0 0 0 0 -44 0
0 0 0 -84 0 -46 0 0 0
0 0 0 -39 0 0 99 -71
0 0 0 0 0 0 0
0 0 0 49 62 -5
0 0 -35 0 0
0 0 0 0
0 77 73
0 0
0
0 0 0 0 0 0 0 0 -69 5 0 0
0 0 0 0 0 0 0 0 0 1 0
0 0 0 0 0 -68 -68 0 0 0
0 0 0 0 -15 -61 -56 0 -58
0 0 0 -65 0 0 -33 0
0 -18 16 -54 0 -73 0
0 17 0 -58 0 0
0 -6 0 0 0
0 -58 0 0
0 0 0
0 0
0
0 0 0 0 0 16 0 0 -11 0 0
0 0 0 0 0 86 62 0 0 0
0 0 0 0 0 -6 0 0 0
0 0 0 0 35 0 -58 0
0 0 -63 0 37 0 0
0 0 0 0 0 0
0 0 0 0 0
0 0 0 0
0 0 0
0 0
0
0 95 0 68 0 0 -47 0 0 0
0 -59 0 0 34 0 -65 0 89
0 0 -58 0 -46 0 0 0
0 0 0 0 0 0 0
0 0 83 0 0 0
0 0 70 0 0
0 -34 0 0
0 -40 0
0 0
0
0 0 0 0 53 0 0 34 0
0 0 0 0 -47 0 -43 0
0 -71 0 0 0 0 0
0 0 0 73 0 0
0 0 0 0 -40
0 0 0 0
0 0 46
0 60
0
0 0 0 0 0 0 0 0
0 0 -9 0 0 0 0
0 0 0 0 -27 0
0 0 0 0 0
0 0 2 0
0 47 0
0 98
0
0 0 0 0 0 49 0
0 0 0 67 -93 -17
0 0 0 0 -71
0 0 0 -1
0 85 0
0 0
0
0 0 -13 0 0 0
0 0 0 87 0
0 0 0 0
0 0 75
0 -48
0
0 -13 86 0 0
0 0 0 0
0 -81 0
0 0
0
0 0 0 62
0 -70 0
0 3
0
0 24 0
0 0
0
0 0
0
0
-380 23 334 546 -185 -89 488 -472 -356 294 877 24 -69 831 -600 533 -931 -169 457 375
-89.17333333333333 1.1006988525420645 13.496495356037153 119.64916896120151 -16.364341806898196 -4.778452380952382 18.140457216542323 -20.626161616161617 -38.05809523809524 17.0958547008547 46.80471079308288 1.011806763285024 -17.587827956989248 27.908647978642257 -149.36147186147187 48.30190476190476 -180.31844444444442 -5.797055520705406 34.28824637681159 14.505038725576483
